c FILE:  C125.9.clq
c
c SOURCE: Generated by Michael Trick using
c         ggen, a program by Craig Morgenstern
c 
c DESCRIPTION: Cx.y is a random graph on x vertices
c              with edge probability .y
c
c 
c G(n,p) graph
c graph gen seed     : 74328432
c number of vertices : 125
c max number of edges: 20000
c edge probability   : 0.900000
c data structure     : dense
c
c           Graph Stats
c number of vertices  : 125
c nonisolated vertices: 125
c number of edges     : 6963
c edge density        : 0.898452
c max degree          : 119
c avg degree          : 111.41
c min degree          : 102
p col 5 6
n 1 10
n 2 12
n 3 8
n 4 5
n 5 14
e 2 1
e 3 1
e 4 1
e 4 2
e 4 3
e 5 1
